parameters: neos-860300_10_1_3_0.300000 

SCIP version 6.0.1 [precision: 8 byte] [memory: block] [mode: optimized] [LP solver: SoPlex 4.0.1] [GitHash: a27ecc0]
Copyright (C) 2002-2019 Konrad-Zuse-Zentrum fuer Informationstechnik Berlin (ZIB)

read problem <instances/neos-860300.mps> ...

original problem has 1385 variables (1384 bin, 0 int, 0 impl, 1 cont) and 850 constraints
read solution <10solution/neos-860300_1.sol> ...

check the feasibility of <10solution/neos-860300_1.sol> for problem <instances/neos-860300.mps> ...

The solution <10solution/neos-860300_1.sol> is optimal to <instances/neos-860300.mps> 


real	0m0.173s
user	0m0.160s
sys	0m0.013s
